words_hard_train/5882.qaiger
aag 75 23 0 1 52
2
4
12
16
18
26
32
34
42
46
48
56
62
64
72
74
82
102
104
112
132
134
142
150
6 2 5
8 3 4
10 7 9
14 10 12
20 16 19
22 17 18
24 21 23
28 24 26
30 15 29
36 32 35
38 33 34
40 37 39
44 41 43
50 46 49
52 47 48
54 51 53
58 55 57
60 45 59
66 63 65
68 62 64
70 67 69
76 72 75
78 73 74
80 77 79
84 81 83
86 71 85
88 80 82
90 40 42
92 89 91
94 87 92
96 60 95
98 54 56
100 97 99
106 102 105
108 103 104
110 107 109
114 110 112
116 100 115
118 111 113
120 117 119
122 11 13
124 120 123
126 30 125
128 25 27
130 127 129
136 132 135
138 133 134
140 137 139
144 141 143
146 131 145
148 140 142
150 147 149
i0 2 y1[5]
i1 2 y2[5]
i2 1 x2[4]
i3 2 y1[6]
i4 2 y2[6]
i5 1 x2[5]
i6 2 y1[2]
i7 2 y2[2]
i8 1 x2[1]
i9 2 y1[3]
i10 2 y2[3]
i11 1 x2[2]
i12 2 y1[0]
i13 2 y2[0]
i14 2 y1[1]
i15 2 y2[1]
i16 1 x2[0]
i17 2 y1[4]
i18 2 y2[4]
i19 1 x2[3]
i20 2 y1[7]
i21 2 y2[7]
i22 1 x2[6]
o0 bv[0]
c
simplified
  >
    or
      1
      << 1
        1 x2
    xor
      2 y2
      2 y1
