words_hard_train/5882.qaiger.qdimacs
p cnf 75 157
a 6 71 41 13 21 56 28 0
e 1 2 3 4 5 7 8 9 10 11 12 14 15 16 17 18 19 20 22 23 24 25 26 27 29 30 31 32 33 34 35 36 37 38 39 40 42 43 44 45 46 47 48 49 50 51 52 53 54 55 57 58 59 60 61 62 63 64 65 66 67 68 69 70 72 73 74 75 0
-1 2 3 0
1 -3 0
-2 -3 0
1 -2 4 0
-1 -4 0
2 -4 0
3 4 5 0
-3 -5 0
-4 -5 0
-5 -6 7 0
5 -7 0
6 -7 0
-8 9 10 0
8 -10 0
-9 -10 0
8 -9 11 0
-8 -11 0
9 -11 0
10 11 12 0
-10 -12 0
-11 -12 0
-12 -13 14 0
12 -14 0
13 -14 0
7 14 15 0
-7 -15 0
-14 -15 0
-16 17 18 0
16 -18 0
-17 -18 0
16 -17 19 0
-16 -19 0
17 -19 0
18 19 20 0
-18 -20 0
-19 -20 0
20 21 22 0
-20 -22 0
-21 -22 0
-23 24 25 0
23 -25 0
-24 -25 0
23 -24 26 0
-23 -26 0
24 -26 0
25 26 27 0
-25 -27 0
-26 -27 0
27 28 29 0
-27 -29 0
-28 -29 0
22 29 30 0
-22 -30 0
-29 -30 0
31 32 33 0
-31 -33 0
-32 -33 0
-31 -32 34 0
31 -34 0
32 -34 0
33 34 35 0
-33 -35 0
-34 -35 0
-36 37 38 0
36 -38 0
-37 -38 0
36 -37 39 0
-36 -39 0
37 -39 0
38 39 40 0
-38 -40 0
-39 -40 0
40 41 42 0
-40 -42 0
-41 -42 0
35 42 43 0
-35 -43 0
-42 -43 0
-40 -41 44 0
40 -44 0
41 -44 0
-20 -21 45 0
20 -45 0
21 -45 0
44 45 46 0
-44 -46 0
-45 -46 0
43 -46 47 0
-43 -47 0
46 -47 0
-30 47 48 0
30 -48 0
-47 -48 0
-27 -28 49 0
27 -49 0
28 -49 0
48 49 50 0
-48 -50 0
-49 -50 0
-51 52 53 0
51 -53 0
-52 -53 0
51 -52 54 0
-51 -54 0
52 -54 0
53 54 55 0
-53 -55 0
-54 -55 0
-55 -56 57 0
55 -57 0
56 -57 0
-50 57 58 0
50 -58 0
-57 -58 0
55 56 59 0
-55 -59 0
-56 -59 0
58 59 60 0
-58 -60 0
-59 -60 0
5 6 61 0
-5 -61 0
-6 -61 0
-60 61 62 0
60 -62 0
-61 -62 0
-15 62 63 0
15 -63 0
-62 -63 0
12 13 64 0
-12 -64 0
-13 -64 0
63 64 65 0
-63 -65 0
-64 -65 0
-66 67 68 0
66 -68 0
-67 -68 0
66 -67 69 0
-66 -69 0
67 -69 0
68 69 70 0
-68 -70 0
-69 -70 0
70 71 72 0
-70 -72 0
-71 -72 0
65 72 73 0
-65 -73 0
-72 -73 0
-70 -71 74 0
70 -74 0
71 -74 0
73 74 75 0
-73 -75 0
-74 -75 0
75 0
